
  32    4
  10   10   10   10

   0   0   0   0   0   3 2 30 31 
   2   0   1   1   1   1 3 
   1   1   3   3   0   3 29 19 4 
   4   2   7   0   3   1 5 
   6   2   0   2   2   2 28 6 
   7   4   1   4   0   3 27 26 7 
   2   5   3   0   4   3 25 24 8 
   6   2   0   2   5   2 23 9 
   1   1   0   9   3   1 10 
   5   6   4   0   5   2 22 11 
   8   5   0   7   2   1 12 
   7   6   0   4   3   1 13 
   5   4   7   0   5   1 14 
   5   4   0   5   4   1 15 
   1   3   4   2   0   1 16 
   9   4   3   0   2   2 21 17 
   8   3   0   4   3   1 18 
   8   3   4   0   3   1 20 
   7   6   4   0   5   1 21 
   4   0   9   4   4   1 32
   8   5   5   0   5   1 32
   5   2   0   3   4   1 32
   9   7   0   3   1   1 32
   2   0   5   8   7   1 32
  10   6   3   2   0   1 32
   2   0   5   4   6   1 32
   5   0   5   3   7   1 32
   5   5   3   4   0   1 32
   6   0   2   6   6   1 32
   5   0   3   4   4   1 32
   9   6   3   0   6   1 32
   0   0   0   0   0   0 
